(set-logic QF_NRA)
(set-info :source |Benchmarks generated from hycomp (https://es-static.fbk.eu/tools/hycomp/). BMC instances of non-linear hybrid automata taken from: Alessandro Cimatti, Sergio Mover, Stefano Tonetta, A quantifier-free SMT encoding of non-linear hybrid automata, FMCAD 2012 and Alessandro Cimatti, Sergio Mover, Stefano Tonetta, Quantier-free encoding of invariants for Hybrid Systems, Formal Methods in System Design. This instance solves a BMC problem of depth 2 and uses the quantifier free encoding with equivalences encoding. Contacts: Sergio Mover (mover@fbk.eu), Stefano Tonetta (tonettas@fbk.eu), Alessandro Cimatti (cimatti@fbk.eu).|)
(set-info :smt-lib-version 2.0)
(set-info :category "industrial")
(set-info :status unsat)
;; MathSAT API call trace
;; generated on Mon Mar 19 10:42:01 2012
(declare-fun b.x__AT0 () Real)
(declare-fun b.event_is_timed__AT2 () Bool)
(declare-fun b.speed_y__AT1 () Real)
(declare-fun b.delta__AT1 () Real)
(declare-fun b.bool_atom__AT0 () Bool)
(declare-fun b.y__AT0 () Real)
(declare-fun b.EVENT.1__AT1 () Bool)
(declare-fun b.EVENT.0__AT1 () Bool)
(declare-fun b.counter.0__AT0 () Bool)
(declare-fun b.delta__AT0 () Real)
(declare-fun b.counter.1__AT0 () Bool)
(declare-fun b.time__AT2 () Real)
(declare-fun b.y__AT2 () Real)
(declare-fun b.y__AT1 () Real)
(declare-fun b.EVENT.0__AT0 () Bool)
(declare-fun b.delta__AT2 () Real)
(declare-fun b.counter.0__AT2 () Bool)
(declare-fun b.x__AT2 () Real)
(declare-fun b.EVENT.0__AT2 () Bool)
(declare-fun b.counter.1__AT2 () Bool)
(declare-fun b.EVENT.1__AT2 () Bool)
(declare-fun b.counter.2__AT2 () Bool)
(declare-fun b.counter.3__AT2 () Bool)
(declare-fun b.speed_y__AT0 () Real)
(declare-fun b.bool_atom__AT2 () Bool)
(declare-fun b.speed_x__AT2 () Real)
(declare-fun b.event_is_timed__AT0 () Bool)
(declare-fun b.speed_y__AT2 () Real)
(declare-fun b.counter.3__AT0 () Bool)
(declare-fun b.speed_x__AT1 () Real)
(declare-fun b.time__AT1 () Real)
(declare-fun b.x__AT1 () Real)
(declare-fun b.event_is_timed__AT1 () Bool)
(declare-fun b.counter.0__AT1 () Bool)
(declare-fun b.EVENT.1__AT0 () Bool)
(declare-fun b.speed_loss__AT0 () Real)
(declare-fun b.counter.1__AT1 () Bool)
(declare-fun b.speed_x__AT0 () Real)
(declare-fun b.counter.2__AT1 () Bool)
(declare-fun b.time__AT0 () Real)
(declare-fun b.counter.2__AT0 () Bool)
(declare-fun b.counter.3__AT1 () Bool)
(declare-fun b.bool_atom__AT1 () Bool)
(assert (let ((.def_750 (* (- 49.0) b.delta__AT2)))
(let ((.def_751 (* 5.0 b.speed_y__AT2)))
(let ((.def_753 (+ .def_751 .def_750)))
(let ((.def_756 (<= 0.0 .def_753)))
(let ((.def_684 (* b.y__AT2 b.speed_y__AT2)))
(let ((.def_724 (* 2.0 .def_684)))
(let ((.def_725 (+ b.speed_x__AT2 .def_724)))
(let ((.def_729 (<= .def_725 0.0 )))
(let ((.def_757 (and .def_729 .def_756)))
(let ((.def_754 (<= .def_753 0.0 )))
(let ((.def_726 (<= 0.0 .def_725)))
(let ((.def_755 (and .def_726 .def_754)))
(let ((.def_758 (or .def_755 .def_757)))
(let ((.def_673 (* (- (/ 49 10)) b.speed_y__AT2)))
(let ((.def_702 (* 3.0 .def_673)))
(let ((.def_734 (* 2.0 .def_702)))
(let ((.def_735 (* b.delta__AT2 .def_734)))
(let ((.def_736 (* (- 50.0) .def_735)))
(let ((.def_668 (* b.delta__AT2 b.delta__AT2)))
(let ((.def_733 (* (- 7203.0) .def_668)))
(let ((.def_737 (+ .def_733 .def_736)))
(let ((.def_551 (* b.speed_y__AT2 b.speed_y__AT2)))
(let ((.def_738 (* (- 50.0) .def_551)))
(let ((.def_742 (+ .def_738 .def_737)))
(let ((.def_740 (* 490.0 b.y__AT2)))
(let ((.def_743 (+ .def_740 .def_742)))
(let ((.def_746 (<= 0.0 .def_743)))
(let ((.def_747 (and .def_729 .def_746)))
(let ((.def_744 (<= .def_743 0.0 )))
(let ((.def_745 (and .def_726 .def_744)))
(let ((.def_748 (or .def_745 .def_747)))
(let ((.def_680 (* (- (/ 49 10)) b.y__AT2)))
(let ((.def_710 (* 2.0 .def_680)))
(let ((.def_711 (* b.delta__AT2 .def_710)))
(let ((.def_712 (* 50.0 .def_711)))
(let ((.def_706 (* 2.0 .def_551)))
(let ((.def_707 (* b.delta__AT2 .def_706)))
(let ((.def_708 (* 25.0 .def_707)))
(let ((.def_718 (+ .def_708 .def_712)))
(let ((.def_703 (* .def_668 .def_702)))
(let ((.def_704 (* 50.0 .def_703)))
(let ((.def_719 (+ .def_704 .def_718)))
(let ((.def_714 (* 50.0 .def_684)))
(let ((.def_720 (+ .def_714 .def_719)))
(let ((.def_669 (* b.delta__AT2 .def_668)))
(let ((.def_701 (* 2401.0 .def_669)))
(let ((.def_721 (+ .def_701 .def_720)))
(let ((.def_716 (* 25.0 b.speed_x__AT2)))
(let ((.def_722 (+ .def_716 .def_721)))
(let ((.def_728 (<= .def_722 0.0 )))
(let ((.def_730 (and .def_728 .def_729)))
(let ((.def_723 (<= 0.0 .def_722)))
(let ((.def_727 (and .def_723 .def_726)))
(let ((.def_731 (or .def_727 .def_730)))
(let ((.def_685 (* b.delta__AT2 .def_684)))
(let ((.def_686 (* 200.0 .def_685)))
(let ((.def_681 (* .def_668 .def_680)))
(let ((.def_682 (* 200.0 .def_681)))
(let ((.def_692 (+ .def_682 .def_686)))
(let ((.def_677 (* .def_551 .def_668)))
(let ((.def_678 (* 100.0 .def_677)))
(let ((.def_693 (+ .def_678 .def_692)))
(let ((.def_674 (* .def_669 .def_673)))
(let ((.def_675 (* 200.0 .def_674)))
(let ((.def_694 (+ .def_675 .def_693)))
(let ((.def_670 (* b.delta__AT2 .def_669)))
(let ((.def_671 (* 2401.0 .def_670)))
(let ((.def_695 (+ .def_671 .def_694)))
(let ((.def_666 (* b.speed_x__AT2 b.delta__AT2)))
(let ((.def_667 (* 100.0 .def_666)))
(let ((.def_696 (+ .def_667 .def_695)))
(let ((.def_655 (* b.y__AT2 b.y__AT2)))
(let ((.def_688 (* 100.0 .def_655)))
(let ((.def_697 (+ .def_688 .def_696)))
(let ((.def_690 (* 100.0 b.x__AT2)))
(let ((.def_698 (+ .def_690 .def_697)))
(let ((.def_699 (<= 0.0 .def_698)))
(let ((.def_656 (+ b.x__AT2 .def_655)))
(let ((.def_657 (<= 0.0 .def_656)))
(let ((.def_700 (and .def_657 .def_699)))
(let ((.def_732 (and .def_700 .def_731)))
(let ((.def_749 (and .def_732 .def_748)))
(let ((.def_759 (and .def_749 .def_758)))
(let ((.def_66 (<= b.speed_loss__AT0 (/ 1 2))))
(let ((.def_63 (<= (/ 1 10) b.speed_loss__AT0)))
(let ((.def_67 (and .def_63 .def_66)))
(let ((.def_760 (and .def_67 .def_759)))
(let ((.def_283 (not b.counter.0__AT1)))
(let ((.def_273 (not b.counter.1__AT1)))
(let ((.def_661 (and .def_273 .def_283)))
(let ((.def_278 (not b.counter.2__AT1)))
(let ((.def_662 (and .def_278 .def_661)))
(let ((.def_658 (and .def_67 .def_657)))
(let ((.def_652 (not b.EVENT.0__AT2)))
(let ((.def_650 (not b.EVENT.1__AT2)))
(let ((.def_653 (or .def_650 .def_652)))
(let ((.def_6 (not b.counter.0__AT2)))
(let ((.def_4 (not b.counter.1__AT2)))
(let ((.def_643 (or .def_4 .def_6)))
(let ((.def_647 (or b.counter.3__AT2 .def_643)))
(let ((.def_644 (or b.counter.2__AT2 .def_643)))
(let ((.def_9 (not b.counter.2__AT2)))
(let ((.def_642 (or .def_6 .def_9)))
(let ((.def_645 (and .def_642 .def_644)))
(let ((.def_573 (not b.counter.3__AT2)))
(let ((.def_646 (or .def_573 .def_645)))
(let ((.def_648 (and .def_646 .def_647)))
(let ((.def_654 (and .def_648 .def_653)))
(let ((.def_659 (and .def_654 .def_658)))
(let ((.def_637 (<= 0.0 b.delta__AT1)))
(let ((.def_373 (not b.EVENT.0__AT1)))
(let ((.def_371 (not b.EVENT.1__AT1)))
(let ((.def_481 (and .def_371 .def_373)))
(let ((.def_483 (not .def_481)))
(let ((.def_638 (or .def_483 .def_637)))
(let ((.def_639 (or b.EVENT.1__AT1 .def_638)))
(let ((.def_522 (= b.bool_atom__AT1 b.bool_atom__AT2)))
(let ((.def_518 (= b.counter.0__AT2 b.counter.0__AT1)))
(let ((.def_516 (= b.counter.1__AT2 b.counter.1__AT1)))
(let ((.def_514 (= b.counter.2__AT2 b.counter.2__AT1)))
(let ((.def_513 (= b.counter.3__AT1 b.counter.3__AT2)))
(let ((.def_515 (and .def_513 .def_514)))
(let ((.def_517 (and .def_515 .def_516)))
(let ((.def_519 (and .def_517 .def_518)))
(let ((.def_633 (and .def_519 .def_522)))
(let ((.def_634 (or .def_483 .def_633)))
(let ((.def_635 (or b.EVENT.1__AT1 .def_634)))
(let ((.def_616 (* b.speed_y__AT1 b.delta__AT1)))
(let ((.def_617 (* 10.0 .def_616)))
(let ((.def_618 (* (- 10.0) b.y__AT2)))
(let ((.def_624 (+ .def_618 .def_617)))
(let ((.def_387 (* b.delta__AT1 b.delta__AT1)))
(let ((.def_620 (* (- 49.0) .def_387)))
(let ((.def_625 (+ .def_620 .def_624)))
(let ((.def_622 (* 10.0 b.y__AT1)))
(let ((.def_626 (+ .def_622 .def_625)))
(let ((.def_627 (= .def_626 0.0 )))
(let ((.def_611 (* (- 5.0) b.speed_y__AT2)))
(let ((.def_469 (* (- 49.0) b.delta__AT1)))
(let ((.def_612 (+ .def_469 .def_611)))
(let ((.def_470 (* 5.0 b.speed_y__AT1)))
(let ((.def_613 (+ .def_470 .def_612)))
(let ((.def_614 (= .def_613 0.0 )))
(let ((.def_607 (* (- 1.0) b.x__AT2)))
(let ((.def_385 (* b.speed_x__AT1 b.delta__AT1)))
(let ((.def_608 (+ .def_385 .def_607)))
(let ((.def_609 (+ b.x__AT1 .def_608)))
(let ((.def_610 (= .def_609 0.0 )))
(let ((.def_615 (and .def_610 .def_614)))
(let ((.def_628 (and .def_615 .def_627)))
(let ((.def_507 (= b.speed_x__AT1 b.speed_x__AT2)))
(let ((.def_629 (and .def_507 .def_628)))
(let ((.def_630 (or .def_483 .def_629)))
(let ((.def_504 (= b.y__AT1 b.y__AT2)))
(let ((.def_501 (= b.x__AT1 b.x__AT2)))
(let ((.def_601 (and .def_501 .def_504)))
(let ((.def_602 (and .def_507 .def_601)))
(let ((.def_510 (= b.speed_y__AT1 b.speed_y__AT2)))
(let ((.def_603 (and .def_510 .def_602)))
(let ((.def_598 (= b.delta__AT1 0.0 )))
(let ((.def_599 (and .def_481 .def_598)))
(let ((.def_600 (not .def_599)))
(let ((.def_604 (or .def_600 .def_603)))
(let ((.def_605 (or b.EVENT.1__AT1 .def_604)))
(let ((.def_590 (and .def_507 .def_510)))
(let ((.def_591 (and .def_519 .def_590)))
(let ((.def_592 (or b.bool_atom__AT1 .def_591)))
(let ((.def_565 (or .def_6 b.counter.0__AT1)))
(let ((.def_564 (or b.counter.0__AT2 .def_283)))
(let ((.def_566 (and .def_564 .def_565)))
(let ((.def_567 (and .def_4 .def_566)))
(let ((.def_568 (or b.counter.1__AT1 .def_567)))
(let ((.def_563 (or b.counter.1__AT2 .def_273)))
(let ((.def_569 (and .def_563 .def_568)))
(let ((.def_581 (and .def_9 .def_569)))
(let ((.def_582 (or b.counter.2__AT1 .def_581)))
(let ((.def_576 (and .def_4 .def_283)))
(let ((.def_577 (or b.counter.1__AT1 .def_576)))
(let ((.def_578 (and .def_563 .def_577)))
(let ((.def_579 (and b.counter.2__AT2 .def_578)))
(let ((.def_580 (or .def_278 .def_579)))
(let ((.def_583 (and .def_580 .def_582)))
(let ((.def_584 (and b.counter.3__AT2 .def_583)))
(let ((.def_585 (or b.counter.3__AT1 .def_584)))
(let ((.def_570 (and b.counter.2__AT2 .def_569)))
(let ((.def_571 (or b.counter.2__AT1 .def_570)))
(let ((.def_559 (or b.counter.1__AT2 b.counter.1__AT1)))
(let ((.def_557 (and .def_4 b.counter.0__AT2)))
(let ((.def_558 (or .def_273 .def_557)))
(let ((.def_560 (and .def_558 .def_559)))
(let ((.def_561 (and .def_9 .def_560)))
(let ((.def_562 (or .def_278 .def_561)))
(let ((.def_572 (and .def_562 .def_571)))
(let ((.def_574 (and .def_572 .def_573)))
(let ((.def_292 (not b.counter.3__AT1)))
(let ((.def_575 (or .def_292 .def_574)))
(let ((.def_586 (and .def_575 .def_585)))
(let ((.def_267 (* b.speed_y__AT1 b.speed_y__AT1)))
(let ((.def_260 (* b.speed_x__AT1 b.speed_x__AT1)))
(let ((.def_547 (+ .def_260 .def_267)))
(let ((.def_248 (* (- 1.0) b.speed_loss__AT0)))
(let ((.def_249 (+ 1.0 .def_248)))
(let ((.def_261 (* .def_249 .def_249)))
(let ((.def_548 (* .def_261 .def_547)))
(let ((.def_549 (* (- 1.0) .def_548)))
(let ((.def_553 (+ .def_549 .def_551)))
(let ((.def_546 (* b.speed_x__AT2 b.speed_x__AT2)))
(let ((.def_554 (+ .def_546 .def_553)))
(let ((.def_555 (= .def_554 0.0 )))
(let ((.def_246 (* 2.0 b.y__AT1)))
(let ((.def_538 (* .def_246 .def_249)))
(let ((.def_539 (* b.speed_y__AT1 .def_538)))
(let ((.def_536 (* b.speed_x__AT1 .def_249)))
(let ((.def_542 (+ .def_536 .def_539)))
(let ((.def_534 (* 2.0 b.y__AT2)))
(let ((.def_535 (* b.speed_y__AT2 .def_534)))
(let ((.def_543 (+ .def_535 .def_542)))
(let ((.def_544 (+ b.speed_x__AT2 .def_543)))
(let ((.def_545 (= .def_544 0.0 )))
(let ((.def_556 (and .def_545 .def_555)))
(let ((.def_587 (and .def_556 .def_586)))
(let ((.def_533 (not b.bool_atom__AT1)))
(let ((.def_588 (or .def_533 .def_587)))
(let ((.def_247 (* b.speed_y__AT1 .def_246)))
(let ((.def_528 (+ b.speed_x__AT1 .def_247)))
(let ((.def_529 (<= 0.0 .def_528)))
(let ((.def_530 (not .def_529)))
(let ((.def_376 (* b.y__AT1 b.y__AT1)))
(let ((.def_377 (+ b.x__AT1 .def_376)))
(let ((.def_527 (= .def_377 0.0 )))
(let ((.def_531 (and .def_527 .def_530)))
(let ((.def_532 (= b.bool_atom__AT1 .def_531)))
(let ((.def_589 (and .def_532 .def_588)))
(let ((.def_593 (and .def_589 .def_592)))
(let ((.def_594 (and .def_501 .def_593)))
(let ((.def_595 (and .def_504 .def_594)))
(let ((.def_596 (or .def_481 .def_595)))
(let ((.def_597 (or b.EVENT.1__AT1 .def_596)))
(let ((.def_606 (and .def_597 .def_605)))
(let ((.def_631 (and .def_606 .def_630)))
(let ((.def_488 (= b.time__AT1 b.time__AT2)))
(let ((.def_502 (and .def_488 .def_501)))
(let ((.def_505 (and .def_502 .def_504)))
(let ((.def_508 (and .def_505 .def_507)))
(let ((.def_511 (and .def_508 .def_510)))
(let ((.def_520 (and .def_511 .def_519)))
(let ((.def_523 (and .def_520 .def_522)))
(let ((.def_524 (or .def_371 .def_523)))
(let ((.def_491 (* (- 1.0) b.time__AT2)))
(let ((.def_494 (+ b.delta__AT1 .def_491)))
(let ((.def_495 (+ b.time__AT1 .def_494)))
(let ((.def_496 (= .def_495 0.0 )))
(let ((.def_497 (or .def_483 .def_496)))
(let ((.def_498 (or b.EVENT.1__AT1 .def_497)))
(let ((.def_489 (or .def_481 .def_488)))
(let ((.def_490 (or b.EVENT.1__AT1 .def_489)))
(let ((.def_499 (and .def_490 .def_498)))
(let ((.def_525 (and .def_499 .def_524)))
(let ((.def_485 (= .def_483 b.event_is_timed__AT2)))
(let ((.def_482 (= b.event_is_timed__AT1 .def_481)))
(let ((.def_486 (and .def_482 .def_485)))
(let ((.def_526 (and .def_486 .def_525)))
(let ((.def_632 (and .def_526 .def_631)))
(let ((.def_636 (and .def_632 .def_635)))
(let ((.def_640 (and .def_636 .def_639)))
(let ((.def_641 (and .def_371 .def_640)))
(let ((.def_660 (and .def_641 .def_659)))
(let ((.def_663 (and .def_660 .def_662)))
(let ((.def_472 (+ .def_470 .def_469)))
(let ((.def_475 (<= 0.0 .def_472)))
(let ((.def_403 (* b.y__AT1 b.speed_y__AT1)))
(let ((.def_443 (* 2.0 .def_403)))
(let ((.def_444 (+ b.speed_x__AT1 .def_443)))
(let ((.def_448 (<= .def_444 0.0 )))
(let ((.def_476 (and .def_448 .def_475)))
(let ((.def_473 (<= .def_472 0.0 )))
(let ((.def_445 (<= 0.0 .def_444)))
(let ((.def_474 (and .def_445 .def_473)))
(let ((.def_477 (or .def_474 .def_476)))
(let ((.def_392 (* (- (/ 49 10)) b.speed_y__AT1)))
(let ((.def_421 (* 3.0 .def_392)))
(let ((.def_453 (* 2.0 .def_421)))
(let ((.def_454 (* b.delta__AT1 .def_453)))
(let ((.def_455 (* (- 50.0) .def_454)))
(let ((.def_452 (* (- 7203.0) .def_387)))
(let ((.def_456 (+ .def_452 .def_455)))
(let ((.def_457 (* (- 50.0) .def_267)))
(let ((.def_461 (+ .def_457 .def_456)))
(let ((.def_459 (* 490.0 b.y__AT1)))
(let ((.def_462 (+ .def_459 .def_461)))
(let ((.def_465 (<= 0.0 .def_462)))
(let ((.def_466 (and .def_448 .def_465)))
(let ((.def_463 (<= .def_462 0.0 )))
(let ((.def_464 (and .def_445 .def_463)))
(let ((.def_467 (or .def_464 .def_466)))
(let ((.def_399 (* (- (/ 49 10)) b.y__AT1)))
(let ((.def_429 (* 2.0 .def_399)))
(let ((.def_430 (* b.delta__AT1 .def_429)))
(let ((.def_431 (* 50.0 .def_430)))
(let ((.def_425 (* 2.0 .def_267)))
(let ((.def_426 (* b.delta__AT1 .def_425)))
(let ((.def_427 (* 25.0 .def_426)))
(let ((.def_437 (+ .def_427 .def_431)))
(let ((.def_422 (* .def_387 .def_421)))
(let ((.def_423 (* 50.0 .def_422)))
(let ((.def_438 (+ .def_423 .def_437)))
(let ((.def_433 (* 50.0 .def_403)))
(let ((.def_439 (+ .def_433 .def_438)))
(let ((.def_388 (* b.delta__AT1 .def_387)))
(let ((.def_420 (* 2401.0 .def_388)))
(let ((.def_440 (+ .def_420 .def_439)))
(let ((.def_435 (* 25.0 b.speed_x__AT1)))
(let ((.def_441 (+ .def_435 .def_440)))
(let ((.def_447 (<= .def_441 0.0 )))
(let ((.def_449 (and .def_447 .def_448)))
(let ((.def_442 (<= 0.0 .def_441)))
(let ((.def_446 (and .def_442 .def_445)))
(let ((.def_450 (or .def_446 .def_449)))
(let ((.def_404 (* b.delta__AT1 .def_403)))
(let ((.def_405 (* 200.0 .def_404)))
(let ((.def_400 (* .def_387 .def_399)))
(let ((.def_401 (* 200.0 .def_400)))
(let ((.def_411 (+ .def_401 .def_405)))
(let ((.def_396 (* .def_267 .def_387)))
(let ((.def_397 (* 100.0 .def_396)))
(let ((.def_412 (+ .def_397 .def_411)))
(let ((.def_393 (* .def_388 .def_392)))
(let ((.def_394 (* 200.0 .def_393)))
(let ((.def_413 (+ .def_394 .def_412)))
(let ((.def_389 (* b.delta__AT1 .def_388)))
(let ((.def_390 (* 2401.0 .def_389)))
(let ((.def_414 (+ .def_390 .def_413)))
(let ((.def_386 (* 100.0 .def_385)))
(let ((.def_415 (+ .def_386 .def_414)))
(let ((.def_407 (* 100.0 .def_376)))
(let ((.def_416 (+ .def_407 .def_415)))
(let ((.def_409 (* 100.0 b.x__AT1)))
(let ((.def_417 (+ .def_409 .def_416)))
(let ((.def_418 (<= 0.0 .def_417)))
(let ((.def_378 (<= 0.0 .def_377)))
(let ((.def_419 (and .def_378 .def_418)))
(let ((.def_451 (and .def_419 .def_450)))
(let ((.def_468 (and .def_451 .def_467)))
(let ((.def_478 (and .def_468 .def_477)))
(let ((.def_479 (and .def_67 .def_478)))
(let ((.def_379 (and .def_67 .def_378)))
(let ((.def_374 (or .def_371 .def_373)))
(let ((.def_364 (or .def_273 .def_283)))
(let ((.def_368 (or b.counter.3__AT1 .def_364)))
(let ((.def_365 (or b.counter.2__AT1 .def_364)))
(let ((.def_363 (or .def_278 .def_283)))
(let ((.def_366 (and .def_363 .def_365)))
(let ((.def_367 (or .def_292 .def_366)))
(let ((.def_369 (and .def_367 .def_368)))
(let ((.def_375 (and .def_369 .def_374)))
(let ((.def_380 (and .def_375 .def_379)))
(let ((.def_358 (<= 0.0 b.delta__AT0)))
(let ((.def_55 (not b.EVENT.0__AT0)))
(let ((.def_53 (not b.EVENT.1__AT0)))
(let ((.def_186 (and .def_53 .def_55)))
(let ((.def_188 (not .def_186)))
(let ((.def_359 (or .def_188 .def_358)))
(let ((.def_360 (or b.EVENT.1__AT0 .def_359)))
(let ((.def_232 (= b.bool_atom__AT0 b.bool_atom__AT1)))
(let ((.def_227 (= b.counter.0__AT0 b.counter.0__AT1)))
(let ((.def_224 (= b.counter.1__AT0 b.counter.1__AT1)))
(let ((.def_221 (= b.counter.2__AT0 b.counter.2__AT1)))
(let ((.def_219 (= b.counter.3__AT0 b.counter.3__AT1)))
(let ((.def_222 (and .def_219 .def_221)))
(let ((.def_225 (and .def_222 .def_224)))
(let ((.def_228 (and .def_225 .def_227)))
(let ((.def_354 (and .def_228 .def_232)))
(let ((.def_355 (or .def_188 .def_354)))
(let ((.def_356 (or b.EVENT.1__AT0 .def_355)))
(let ((.def_336 (* b.speed_y__AT0 b.delta__AT0)))
(let ((.def_337 (* 10.0 .def_336)))
(let ((.def_341 (* (- 10.0) b.y__AT1)))
(let ((.def_345 (+ .def_341 .def_337)))
(let ((.def_76 (* b.delta__AT0 b.delta__AT0)))
(let ((.def_338 (* (- 49.0) .def_76)))
(let ((.def_346 (+ .def_338 .def_345)))
(let ((.def_343 (* 10.0 b.y__AT0)))
(let ((.def_347 (+ .def_343 .def_346)))
(let ((.def_348 (= .def_347 0.0 )))
(let ((.def_331 (* (- 5.0) b.speed_y__AT1)))
(let ((.def_173 (* (- 49.0) b.delta__AT0)))
(let ((.def_332 (+ .def_173 .def_331)))
(let ((.def_175 (* 5.0 b.speed_y__AT0)))
(let ((.def_333 (+ .def_175 .def_332)))
(let ((.def_334 (= .def_333 0.0 )))
(let ((.def_326 (* (- 1.0) b.x__AT1)))
(let ((.def_73 (* b.speed_x__AT0 b.delta__AT0)))
(let ((.def_327 (+ .def_73 .def_326)))
(let ((.def_328 (+ b.x__AT0 .def_327)))
(let ((.def_329 (= .def_328 0.0 )))
(let ((.def_335 (and .def_329 .def_334)))
(let ((.def_349 (and .def_335 .def_348)))
(let ((.def_213 (= b.speed_x__AT0 b.speed_x__AT1)))
(let ((.def_350 (and .def_213 .def_349)))
(let ((.def_351 (or .def_188 .def_350)))
(let ((.def_210 (= b.y__AT0 b.y__AT1)))
(let ((.def_207 (= b.x__AT0 b.x__AT1)))
(let ((.def_320 (and .def_207 .def_210)))
(let ((.def_321 (and .def_213 .def_320)))
(let ((.def_216 (= b.speed_y__AT0 b.speed_y__AT1)))
(let ((.def_322 (and .def_216 .def_321)))
(let ((.def_317 (= b.delta__AT0 0.0 )))
(let ((.def_318 (and .def_186 .def_317)))
(let ((.def_319 (not .def_318)))
(let ((.def_323 (or .def_319 .def_322)))
(let ((.def_324 (or b.EVENT.1__AT0 .def_323)))
(let ((.def_309 (and .def_213 .def_216)))
(let ((.def_310 (and .def_228 .def_309)))
(let ((.def_311 (or b.bool_atom__AT0 .def_310)))
(let ((.def_284 (or b.counter.0__AT0 .def_283)))
(let ((.def_36 (not b.counter.0__AT0)))
(let ((.def_282 (or .def_36 b.counter.0__AT1)))
(let ((.def_285 (and .def_282 .def_284)))
(let ((.def_286 (and .def_273 .def_285)))
(let ((.def_287 (or b.counter.1__AT0 .def_286)))
(let ((.def_34 (not b.counter.1__AT0)))
(let ((.def_281 (or .def_34 b.counter.1__AT1)))
(let ((.def_288 (and .def_281 .def_287)))
(let ((.def_300 (and .def_278 .def_288)))
(let ((.def_301 (or b.counter.2__AT0 .def_300)))
(let ((.def_295 (and .def_36 .def_273)))
(let ((.def_296 (or b.counter.1__AT0 .def_295)))
(let ((.def_297 (and .def_281 .def_296)))
(let ((.def_298 (and b.counter.2__AT1 .def_297)))
(let ((.def_39 (not b.counter.2__AT0)))
(let ((.def_299 (or .def_39 .def_298)))
(let ((.def_302 (and .def_299 .def_301)))
(let ((.def_303 (and b.counter.3__AT1 .def_302)))
(let ((.def_304 (or b.counter.3__AT0 .def_303)))
(let ((.def_289 (and b.counter.2__AT1 .def_288)))
(let ((.def_290 (or b.counter.2__AT0 .def_289)))
(let ((.def_276 (or b.counter.1__AT0 b.counter.1__AT1)))
(let ((.def_274 (and b.counter.0__AT1 .def_273)))
(let ((.def_275 (or .def_34 .def_274)))
(let ((.def_277 (and .def_275 .def_276)))
(let ((.def_279 (and .def_277 .def_278)))
(let ((.def_280 (or .def_39 .def_279)))
(let ((.def_291 (and .def_280 .def_290)))
(let ((.def_293 (and .def_291 .def_292)))
(let ((.def_42 (not b.counter.3__AT0)))
(let ((.def_294 (or .def_42 .def_293)))
(let ((.def_305 (and .def_294 .def_304)))
(let ((.def_262 (* b.speed_x__AT0 b.speed_x__AT0)))
(let ((.def_90 (* b.speed_y__AT0 b.speed_y__AT0)))
(let ((.def_263 (+ .def_90 .def_262)))
(let ((.def_264 (* .def_261 .def_263)))
(let ((.def_265 (* (- 1.0) .def_264)))
(let ((.def_269 (+ .def_265 .def_267)))
(let ((.def_270 (+ .def_260 .def_269)))
(let ((.def_271 (= .def_270 0.0 )))
(let ((.def_238 (* 2.0 b.y__AT0)))
(let ((.def_252 (* .def_238 .def_249)))
(let ((.def_253 (* b.speed_y__AT0 .def_252)))
(let ((.def_250 (* b.speed_x__AT0 .def_249)))
(let ((.def_256 (+ .def_250 .def_253)))
(let ((.def_257 (+ .def_247 .def_256)))
(let ((.def_258 (+ b.speed_x__AT1 .def_257)))
(let ((.def_259 (= .def_258 0.0 )))
(let ((.def_272 (and .def_259 .def_271)))
(let ((.def_306 (and .def_272 .def_305)))
(let ((.def_245 (not b.bool_atom__AT0)))
(let ((.def_307 (or .def_245 .def_306)))
(let ((.def_239 (* b.speed_y__AT0 .def_238)))
(let ((.def_240 (+ b.speed_x__AT0 .def_239)))
(let ((.def_241 (<= 0.0 .def_240)))
(let ((.def_242 (not .def_241)))
(let ((.def_58 (* b.y__AT0 b.y__AT0)))
(let ((.def_59 (+ b.x__AT0 .def_58)))
(let ((.def_237 (= .def_59 0.0 )))
(let ((.def_243 (and .def_237 .def_242)))
(let ((.def_244 (= b.bool_atom__AT0 .def_243)))
(let ((.def_308 (and .def_244 .def_307)))
(let ((.def_312 (and .def_308 .def_311)))
(let ((.def_313 (and .def_207 .def_312)))
(let ((.def_314 (and .def_210 .def_313)))
(let ((.def_315 (or .def_186 .def_314)))
(let ((.def_316 (or b.EVENT.1__AT0 .def_315)))
(let ((.def_325 (and .def_316 .def_324)))
(let ((.def_352 (and .def_325 .def_351)))
(let ((.def_193 (= b.time__AT0 b.time__AT1)))
(let ((.def_208 (and .def_193 .def_207)))
(let ((.def_211 (and .def_208 .def_210)))
(let ((.def_214 (and .def_211 .def_213)))
(let ((.def_217 (and .def_214 .def_216)))
(let ((.def_229 (and .def_217 .def_228)))
(let ((.def_233 (and .def_229 .def_232)))
(let ((.def_234 (or .def_53 .def_233)))
(let ((.def_197 (* (- 1.0) b.time__AT1)))
(let ((.def_200 (+ b.delta__AT0 .def_197)))
(let ((.def_201 (+ b.time__AT0 .def_200)))
(let ((.def_202 (= .def_201 0.0 )))
(let ((.def_203 (or .def_188 .def_202)))
(let ((.def_204 (or b.EVENT.1__AT0 .def_203)))
(let ((.def_194 (or .def_186 .def_193)))
(let ((.def_195 (or b.EVENT.1__AT0 .def_194)))
(let ((.def_205 (and .def_195 .def_204)))
(let ((.def_235 (and .def_205 .def_234)))
(let ((.def_190 (= .def_188 b.event_is_timed__AT1)))
(let ((.def_187 (= b.event_is_timed__AT0 .def_186)))
(let ((.def_191 (and .def_187 .def_190)))
(let ((.def_236 (and .def_191 .def_235)))
(let ((.def_353 (and .def_236 .def_352)))
(let ((.def_357 (and .def_353 .def_356)))
(let ((.def_361 (and .def_357 .def_360)))
(let ((.def_362 (and .def_53 .def_361)))
(let ((.def_381 (and .def_362 .def_380)))
(let ((.def_37 (and .def_34 .def_36)))
(let ((.def_40 (and .def_37 .def_39)))
(let ((.def_382 (and .def_40 .def_381)))
(let ((.def_177 (+ .def_175 .def_173)))
(let ((.def_180 (<= 0.0 .def_177)))
(let ((.def_98 (* b.y__AT0 b.speed_y__AT0)))
(let ((.def_141 (* 2.0 .def_98)))
(let ((.def_142 (+ b.speed_x__AT0 .def_141)))
(let ((.def_146 (<= .def_142 0.0 )))
(let ((.def_181 (and .def_146 .def_180)))
(let ((.def_178 (<= .def_177 0.0 )))
(let ((.def_143 (<= 0.0 .def_142)))
(let ((.def_179 (and .def_143 .def_178)))
(let ((.def_182 (or .def_179 .def_181)))
(let ((.def_85 (* (- (/ 49 10)) b.speed_y__AT0)))
(let ((.def_117 (* 3.0 .def_85)))
(let ((.def_153 (* 2.0 .def_117)))
(let ((.def_154 (* b.delta__AT0 .def_153)))
(let ((.def_156 (* (- 50.0) .def_154)))
(let ((.def_158 (* (- 50.0) .def_90)))
(let ((.def_163 (+ .def_158 .def_156)))
(let ((.def_152 (* (- 7203.0) .def_76)))
(let ((.def_164 (+ .def_152 .def_163)))
(let ((.def_161 (* 490.0 b.y__AT0)))
(let ((.def_165 (+ .def_161 .def_164)))
(let ((.def_168 (<= 0.0 .def_165)))
(let ((.def_169 (and .def_146 .def_168)))
(let ((.def_166 (<= .def_165 0.0 )))
(let ((.def_167 (and .def_143 .def_166)))
(let ((.def_170 (or .def_167 .def_169)))
(let ((.def_94 (* (- (/ 49 10)) b.y__AT0)))
(let ((.def_127 (* 2.0 .def_94)))
(let ((.def_128 (* b.delta__AT0 .def_127)))
(let ((.def_129 (* 50.0 .def_128)))
(let ((.def_122 (* 2.0 .def_90)))
(let ((.def_123 (* b.delta__AT0 .def_122)))
(let ((.def_125 (* 25.0 .def_123)))
(let ((.def_135 (+ .def_125 .def_129)))
(let ((.def_118 (* .def_76 .def_117)))
(let ((.def_120 (* 50.0 .def_118)))
(let ((.def_136 (+ .def_120 .def_135)))
(let ((.def_131 (* 50.0 .def_98)))
(let ((.def_137 (+ .def_131 .def_136)))
(let ((.def_77 (* b.delta__AT0 .def_76)))
(let ((.def_115 (* 2401.0 .def_77)))
(let ((.def_138 (+ .def_115 .def_137)))
(let ((.def_133 (* 25.0 b.speed_x__AT0)))
(let ((.def_139 (+ .def_133 .def_138)))
(let ((.def_145 (<= .def_139 0.0 )))
(let ((.def_147 (and .def_145 .def_146)))
(let ((.def_140 (<= 0.0 .def_139)))
(let ((.def_144 (and .def_140 .def_143)))
(let ((.def_148 (or .def_144 .def_147)))
(let ((.def_99 (* b.delta__AT0 .def_98)))
(let ((.def_100 (* 200.0 .def_99)))
(let ((.def_95 (* .def_76 .def_94)))
(let ((.def_96 (* 200.0 .def_95)))
(let ((.def_106 (+ .def_96 .def_100)))
(let ((.def_91 (* .def_76 .def_90)))
(let ((.def_92 (* 100.0 .def_91)))
(let ((.def_107 (+ .def_92 .def_106)))
(let ((.def_86 (* .def_77 .def_85)))
(let ((.def_88 (* 200.0 .def_86)))
(let ((.def_108 (+ .def_88 .def_107)))
(let ((.def_78 (* b.delta__AT0 .def_77)))
(let ((.def_80 (* 2401.0 .def_78)))
(let ((.def_109 (+ .def_80 .def_108)))
(let ((.def_75 (* 100.0 .def_73)))
(let ((.def_110 (+ .def_75 .def_109)))
(let ((.def_102 (* 100.0 .def_58)))
(let ((.def_111 (+ .def_102 .def_110)))
(let ((.def_104 (* 100.0 b.x__AT0)))
(let ((.def_112 (+ .def_104 .def_111)))
(let ((.def_113 (<= 0.0 .def_112)))
(let ((.def_60 (<= 0.0 .def_59)))
(let ((.def_114 (and .def_60 .def_113)))
(let ((.def_149 (and .def_114 .def_148)))
(let ((.def_171 (and .def_149 .def_170)))
(let ((.def_183 (and .def_171 .def_182)))
(let ((.def_184 (and .def_67 .def_183)))
(let ((.def_68 (and .def_60 .def_67)))
(let ((.def_56 (or .def_53 .def_55)))
(let ((.def_46 (or .def_34 .def_36)))
(let ((.def_50 (or b.counter.3__AT0 .def_46)))
(let ((.def_47 (or b.counter.2__AT0 .def_46)))
(let ((.def_45 (or .def_36 .def_39)))
(let ((.def_48 (and .def_45 .def_47)))
(let ((.def_49 (or .def_42 .def_48)))
(let ((.def_51 (and .def_49 .def_50)))
(let ((.def_57 (and .def_51 .def_56)))
(let ((.def_69 (and .def_57 .def_68)))
(let ((.def_43 (and .def_40 .def_42)))
(let ((.def_31 (= b.speed_y__AT0 1.0 )))
(let ((.def_28 (= b.speed_x__AT0 1.0 )))
(let ((.def_24 (= b.y__AT0 10.0 )))
(let ((.def_20 (= b.x__AT0 (- 9.0) )))
(let ((.def_14 (= b.time__AT0 0.0 )))
(let ((.def_16 (and .def_14 b.event_is_timed__AT0)))
(let ((.def_21 (and .def_16 .def_20)))
(let ((.def_25 (and .def_21 .def_24)))
(let ((.def_29 (and .def_25 .def_28)))
(let ((.def_32 (and .def_29 .def_31)))
(let ((.def_44 (and .def_32 .def_43)))
(let ((.def_70 (and .def_44 .def_69)))
(let ((.def_7 (and .def_4 .def_6)))
(let ((.def_10 (and .def_7 .def_9)))
(let ((.def_11 (not .def_10)))
(let ((.def_71 (and .def_11 .def_70)))
(let ((.def_185 (and .def_71 .def_184)))
(let ((.def_383 (and .def_185 .def_382)))
(let ((.def_480 (and .def_383 .def_479)))
(let ((.def_664 (and .def_480 .def_663)))
(let ((.def_761 (and .def_664 .def_760)))
.def_761)))))))))))))))))))))))))))))))))))))))))))))))))))))))))))))))))))))))))))))))))))))))))))))))))))))))))))))))))))))))))))))))))))))))))))))))))))))))))))))))))))))))))))))))))))))))))))))))))))))))))))))))))))))))))))))))))))))))))))))))))))))))))))))))))))))))))))))))))))))))))))))))))))))))))))))))))))))))))))))))))))))))))))))))))))))))))))))))))))))))))))))))))))))))))))))))))))))))))))))))))))))))))))))))))))))))))))))))))))))))))))))))))))))))))))))))))))))))))))))))))))))))))))))))))))))))))))))))))))))))))))))))))))))))))))))))))))))))))))))))))))))))))))))))))))))))))))))))))))))))))))))))))))))))))))))))))
(check-sat)
(exit)
